\ Model NCP
\ LP format - for model browsing. Use MPS format to capture full model detail.
Minimize
  0 F1
Subject To
 R0: - C3 - C5 + C7 + C13 = 0
 R1: C3 + C9 + C15 = 0
 R2: C7 + C9 + C11 = 1
 R3: C5 + C11 + C17 = 1
 R4: C13 + C15 + C17 = 0
 R5: C2 <= 10000
 R6: C4 <= 500
 R7: C6 <= 500
 R8: C8 <= 500
 R9: C10 <= 10000
 R10: C12 <= 500
 R11: C14 <= 500
 R12: C16 <= 500
 R13: C18 <= 10000
 R14: - 1e+06 C1 + C2 >= -999553.8979692609
 R15: - 1e+06 C3 + C4 >= -999553.8979692609
 R16: - 1e+06 C5 + C6 >= -999553.8979692609
 R17: - 1e+06 C7 + C8 >= -999553.8979692609
 R18: - 1e+06 C9 + C10 >= -999553.8979692609
 R19: - 1e+06 C11 + C12 >= -999553.8979692609
 R20: - 1e+06 C13 + C14 >= -999553.8979692609
 R21: - 1e+06 C15 + C16 >= -999553.8979692609
 R22: - 1e+06 C17 + C18 >= -999553.8979692609
 R23: C21 = 0
 R24: - 1e+06 C1 >= -1e+06
 R25: - 1e+06 C3 - C19 + C21 >= -999999.749825966
 R26: - 1e+06 C5 - C19 + C23 >= -999999.8730027088
 R27: - 1e+06 C7 + C19 - C21 >= -999999.881976586
 R28: - 1e+06 C9 >= -1e+06
 R29: - 1e+06 C11 - C21 + C23 >= -999999.8268184994
 R30: - 1e+06 C13 + C19 - C23 >= -999999.8138866276
 R31: - 1e+06 C15 + C21 - C23 >= -999999.8046005032
 R32: - 1e+06 C17 >= -1e+06
 R33: C22 = 0
 R34: - 1e+06 C1 >= -1e+06
 R35: - 1e+06 C3 - C20 + C22 >= -999999.7518099055
 R36: - 1e+06 C5 - C20 + C24 >= -999999.7371553585
 R37: - 1e+06 C7 + C20 - C22 >= -999999.7193699768
 R38: - 1e+06 C9 >= -1e+06
 R39: - 1e+06 C11 - C22 + C24 >= -999999.8258727489
 R40: - 1e+06 C13 + C20 - C24 >= -999999.8863619235
 R41: - 1e+06 C15 + C22 - C24 >= -999999.8399775022
 R42: - 1e+06 C17 >= -1e+06
Bounds
 C2 <= 446.1020307390208
 C4 <= 446.1020307390208
 C6 <= 446.1020307390208
 C8 <= 446.1020307390208
 C10 <= 446.1020307390208
 C12 <= 446.1020307390208
 C14 <= 446.1020307390208
 C16 <= 446.1020307390208
 C18 <= 446.1020307390208
 C19 <= 0.3761831532771899
 C20 <= 0.4994123799205044
 C21 <= 0.3761831532771899
 C22 <= 0.4994123799205044
 C23 <= 0.3761831532771899
 C24 <= 0.4994123799205044
Binaries
 F1 C1 C3 C5 C7 C9 C11 C13 C15 C17
End
